Welcome to the CBC MILP Solver
Version: Devel (unstable)
Build Date: Feb  6 2022
command line - -import /home/danilo/psp-janniele/J30/j3035/j3035_7.lp -timeM elapsed -seconds 10800 -solve -quit (default strategy 1)
seconds was changed from 1e+08 to 10800
Continuous objective value is 7.5253 - 0.150988 seconds
Cgl0003I 0 fixed, 0 tightened bounds, 4 strengthened rows, 0 substitutions
Cgl0003I 0 fixed, 0 tightened bounds, 4 strengthened rows, 0 substitutions
Cgl0003I 0 fixed, 0 tightened bounds, 4 strengthened rows, 0 substitutions
Cgl0003I 0 fixed, 0 tightened bounds, 4 strengthened rows, 0 substitutions
Cgl0003I 0 fixed, 0 tightened bounds, 4 strengthened rows, 0 substitutions
Cgl0003I 0 fixed, 0 tightened bounds, 4 strengthened rows, 0 substitutions
Cgl0003I 0 fixed, 0 tightened bounds, 4 strengthened rows, 0 substitutions
Cgl0003I 0 fixed, 0 tightened bounds, 3 strengthened rows, 0 substitutions
Cgl0003I 0 fixed, 0 tightened bounds, 3 strengthened rows, 0 substitutions
Cgl0004I processed model has 325 rows, 1084 columns (1084 integer (1083 of which binary)) and 13166 elements
Coin3009W Conflict graph built in 0.043 seconds, density: 0.850%
Cgl0015I Clique Strengthening extended 0 cliques, 0 were dominated
Cbc0045I Cutoff increment increased from 0.0001 to 0.9999
Cbc0045I 1 integer variables out of 1084 objects (1084 integer) have cost of 1 - high priority
Cbc0045I branch on satisfied Y create fake objective Y random cost Y
Cbc0038I Initial state - 82 integers unsatisfied sum - 21.3069
Cbc0038I Pass   1: suminf.   10.36837 (40) obj. 9 iterations 130
Cbc0038I Pass   2: suminf.    8.82165 (34) obj. 9 iterations 41
Cbc0038I Pass   3: suminf.    7.96356 (29) obj. 9 iterations 46
Cbc0038I Pass   4: suminf.    7.71104 (29) obj. 9 iterations 18
Cbc0038I Pass   5: suminf.    9.47891 (38) obj. 9 iterations 43
Cbc0038I Pass   6: suminf.    9.13383 (36) obj. 9 iterations 7
Cbc0038I Pass   7: suminf.    9.13383 (36) obj. 9 iterations 5
Cbc0038I Pass   8: suminf.    8.55808 (29) obj. 9 iterations 26
Cbc0038I Pass   9: suminf.    7.75438 (33) obj. 9 iterations 23
Cbc0038I Pass  10: suminf.    7.35438 (32) obj. 9 iterations 3
Cbc0038I Pass  11: suminf.    7.94697 (31) obj. 9 iterations 21
Cbc0038I Pass  12: suminf.    7.03215 (32) obj. 9 iterations 18
Cbc0038I Pass  13: suminf.    7.53937 (30) obj. 9 iterations 21
Cbc0038I Pass  14: suminf.    6.59299 (31) obj. 9 iterations 11
Cbc0038I Pass  15: suminf.    6.59299 (31) obj. 9 iterations 4
Cbc0038I Pass  16: suminf.    7.07302 (25) obj. 9 iterations 28
Cbc0038I Pass  17: suminf.    6.22074 (31) obj. 9 iterations 17
Cbc0038I Pass  18: suminf.    6.09508 (31) obj. 9 iterations 2
Cbc0038I Pass  19: suminf.    7.39978 (29) obj. 9 iterations 30
Cbc0038I Pass  20: suminf.    6.48185 (31) obj. 9 iterations 27
Cbc0038I Pass  21: suminf.    7.09237 (29) obj. 9 iterations 32
Cbc0038I Pass  22: suminf.    6.30003 (31) obj. 9 iterations 19
Cbc0038I Pass  23: suminf.    6.30003 (31) obj. 9 iterations 3
Cbc0038I Pass  24: suminf.    7.09612 (28) obj. 9 iterations 32
Cbc0038I Pass  25: suminf.    6.70379 (25) obj. 9 iterations 20
Cbc0038I Pass  26: suminf.    6.67841 (28) obj. 9 iterations 2
Cbc0038I Pass  27: suminf.    7.34181 (34) obj. 9 iterations 26
Cbc0038I Pass  28: suminf.    5.89484 (31) obj. 9 iterations 13
Cbc0038I Pass  29: suminf.    5.88974 (31) obj. 9 iterations 4
Cbc0038I Pass  30: suminf.    7.43196 (31) obj. 9 iterations 37
Cbc0038I Pass  31: suminf.    6.23295 (30) obj. 9 iterations 15
Cbc0038I Pass  32: suminf.    7.25014 (31) obj. 9 iterations 27
Cbc0038I Pass  33: suminf.    6.05114 (30) obj. 9 iterations 15
Cbc0038I Pass  34: suminf.    6.90220 (25) obj. 9 iterations 25
Cbc0038I Pass  35: suminf.    6.46569 (25) obj. 9 iterations 13
Cbc0038I Pass  36: suminf.    6.44032 (28) obj. 9 iterations 5
Cbc0038I Pass  37: suminf.    6.49663 (27) obj. 9 iterations 24
Cbc0038I Pass  38: suminf.    6.22440 (27) obj. 9 iterations 9
Cbc0038I Pass  39: suminf.    6.59618 (27) obj. 9 iterations 16
Cbc0038I Pass  40: suminf.   15.49116 (50) obj. 9 iterations 97
Cbc0038I Pass  41: suminf.    7.12795 (39) obj. 9 iterations 90
Cbc0038I Pass  42: suminf.    7.12795 (39) obj. 9 iterations 5
Cbc0038I Pass  43: suminf.   10.94626 (35) obj. 9 iterations 60
Cbc0038I Pass  44: suminf.    8.76033 (38) obj. 9 iterations 17
Cbc0038I Pass  45: suminf.    7.69481 (34) obj. 9 iterations 9
Cbc0038I Pass  46: suminf.    7.62140 (34) obj. 9 iterations 5
Cbc0038I Pass  47: suminf.    9.53712 (35) obj. 9 iterations 52
Cbc0038I Pass  48: suminf.    8.29413 (31) obj. 9 iterations 25
Cbc0038I Pass  49: suminf.    8.27165 (29) obj. 9 iterations 3
Cbc0038I Pass  50: suminf.    7.59199 (32) obj. 9 iterations 12
Cbc0038I Pass  51: suminf.    7.20310 (32) obj. 9 iterations 7
Cbc0038I Pass  52: suminf.    7.47987 (32) obj. 9 iterations 10
Cbc0038I Pass  53: suminf.   14.11388 (43) obj. 9 iterations 113
Cbc0038I Pass  54: suminf.   11.21486 (38) obj. 9 iterations 70
Cbc0038I Pass  55: suminf.   10.66813 (39) obj. 9 iterations 3
Cbc0038I Pass  56: suminf.    7.94365 (41) obj. 9 iterations 6
Cbc0038I Pass  57: suminf.    7.57858 (42) obj. 9 iterations 3
Cbc0038I Pass  58: suminf.    8.55882 (30) obj. 9 iterations 59
Cbc0038I Pass  59: suminf.    6.80333 (26) obj. 9 iterations 22
Cbc0038I Pass  60: suminf.    6.80333 (26) obj. 9 iterations 5
Cbc0038I Pass  61: suminf.    6.80333 (26) obj. 9 iterations 10
Cbc0038I Pass  62: suminf.   12.22405 (47) obj. 9 iterations 111
Cbc0038I Pass  63: suminf.    7.27449 (42) obj. 9 iterations 85
Cbc0038I Pass  64: suminf.    7.66905 (28) obj. 9 iterations 23
Cbc0038I Pass  65: suminf.    7.58325 (30) obj. 9 iterations 7
Cbc0038I Pass  66: suminf.    7.21254 (36) obj. 9 iterations 7
Cbc0038I Pass  67: suminf.    6.98206 (37) obj. 9 iterations 2
Cbc0038I Pass  68: suminf.    8.01149 (32) obj. 9 iterations 35
Cbc0038I Pass  69: suminf.    6.37685 (29) obj. 9 iterations 32
Cbc0038I Pass  70: suminf.    8.26111 (27) obj. 9 iterations 35
Cbc0038I Pass  71: suminf.    7.25000 (27) obj. 9 iterations 22
Cbc0038I Pass  72: suminf.    7.17222 (31) obj. 9 iterations 6
Cbc0038I Pass  73: suminf.    7.81667 (24) obj. 9 iterations 13
Cbc0038I Pass  74: suminf.    7.59505 (28) obj. 9 iterations 15
Cbc0038I Pass  75: suminf.    7.34475 (32) obj. 9 iterations 5
Cbc0038I Pass  76: suminf.    7.33571 (28) obj. 9 iterations 15
Cbc0038I Pass  77: suminf.    7.02460 (33) obj. 9 iterations 11
Cbc0038I Pass  78: suminf.    9.99907 (35) obj. 9 iterations 34
Cbc0038I Pass  79: suminf.    8.42008 (30) obj. 9 iterations 20
Cbc0038I Pass  80: suminf.    8.38625 (28) obj. 9 iterations 3
Cbc0038I Pass  81: suminf.    7.50556 (25) obj. 9 iterations 27
Cbc0038I Pass  82: suminf.    6.20556 (22) obj. 9 iterations 13
Cbc0038I Pass  83: suminf.    7.85988 (26) obj. 9 iterations 44
Cbc0038I Pass  84: suminf.    6.78379 (23) obj. 9 iterations 15
Cbc0038I Pass  85: suminf.    6.69450 (27) obj. 9 iterations 10
Cbc0038I Pass  86: suminf.    7.83889 (21) obj. 9 iterations 22
Cbc0038I Pass  87: suminf.    6.90000 (31) obj. 9 iterations 19
Cbc0038I Pass  88: suminf.    6.89444 (30) obj. 9 iterations 4
Cbc0038I Pass  89: suminf.    7.55034 (29) obj. 9 iterations 38
Cbc0038I Pass  90: suminf.    6.32090 (25) obj. 9 iterations 43
Cbc0038I Pass  91: suminf.    6.07460 (23) obj. 9 iterations 10
Cbc0038I Pass  92: suminf.    7.62937 (23) obj. 9 iterations 29
Cbc0038I Pass  93: suminf.    5.96746 (22) obj. 9 iterations 21
Cbc0038I Pass  94: suminf.    5.73730 (23) obj. 9 iterations 7
Cbc0038I Pass  95: suminf.    7.51218 (28) obj. 9 iterations 35
Cbc0038I Pass  96: suminf.    6.32090 (25) obj. 9 iterations 29
Cbc0038I Pass  97: suminf.    6.07460 (23) obj. 9 iterations 10
Cbc0038I Pass  98: suminf.    7.62937 (23) obj. 9 iterations 29
Cbc0038I Pass  99: suminf.    5.96746 (23) obj. 9 iterations 19
Cbc0038I Pass 100: suminf.   16.49055 (51) obj. 9 iterations 104
Cbc0038I No solution found this major pass
Cbc0038I Before mini branch and bound, 826 integers at bound fixed and 0 continuous
Cbc0038I Full problem 325 rows 1084 columns, reduced to 216 rows 219 columns
Cbc0038I Mini branch and bound did not improve solution (4.36 seconds)
Cbc0038I After 4.36 seconds - Feasibility pump exiting - took 2.75 seconds
Cbc0031I 50 added rows had average density of 61.04
Cbc0013I At root node, 50 cuts changed objective from 7.5252987 to 8 in 10 passes
Cbc0014I Cut generator 0 (Probing) - 211 row cuts average 10.0 elements, 42 column cuts (42 active)  in 0.790 seconds - new frequency is 1
Cbc0014I Cut generator 1 (Gomory) - 65 row cuts average 387.0 elements, 0 column cuts (0 active)  in 0.389 seconds - new frequency is -100
Cbc0014I Cut generator 2 (Knapsack) - 13 row cuts average 27.5 elements, 0 column cuts (0 active)  in 0.114 seconds - new frequency is 1
Cbc0014I Cut generator 3 (Clique) - 0 row cuts average 0.0 elements, 0 column cuts (0 active)  in 0.014 seconds - new frequency is -100
Cbc0014I Cut generator 4 (OddWheel) - 0 row cuts average 0.0 elements, 0 column cuts (0 active)  in 0.075 seconds - new frequency is -100
Cbc0014I Cut generator 5 (MixedIntegerRounding2) - 174 row cuts average 65.9 elements, 0 column cuts (0 active)  in 0.084 seconds - new frequency is 1
Cbc0014I Cut generator 6 (FlowCover) - 0 row cuts average 0.0 elements, 0 column cuts (0 active)  in 0.005 seconds - new frequency is -100
Cbc0014I Cut generator 7 (TwoMirCuts) - 239 row cuts average 196.6 elements, 0 column cuts (0 active)  in 0.347 seconds - new frequency is 1
Cbc0014I Cut generator 8 (ZeroHalf) - 83 row cuts average 69.0 elements, 0 column cuts (0 active)  in 0.102 seconds - new frequency is 1
Cbc0010I After 0 nodes, 1 on tree, 1e+50 best solution, best possible 8 (7.64 seconds)
Cbc0010I After 3 nodes, 2 on tree, 1e+50 best solution, best possible 9 (8.40 seconds)
Cbc0010I After 14 nodes, 8 on tree, 1e+50 best solution, best possible 9 (9.11 seconds)
Cbc0004I Integer solution of 9 found after 5232 iterations and 35 nodes (9.77 seconds)
Cbc0001I Search completed - best objective 9, took 5232 iterations and 35 nodes (9.77 seconds)
Cbc0032I Strong branching done 218 times (1484 iterations), fathomed 1 nodes and fixed 0 variables
Cbc0035I Maximum depth 20, 0 variables fixed on reduced cost
Cuts at root node changed objective from 7.5253 to 8
Probing was tried 28 times and created 460 cuts of which 0 were active after adding rounds of cuts (0.92986 seconds)
Gomory was tried 10 times and created 65 cuts of which 0 were active after adding rounds of cuts (0.389244 seconds)
Knapsack was tried 28 times and created 29 cuts of which 0 were active after adding rounds of cuts (0.290436 seconds)
Clique was tried 10 times and created 0 cuts of which 0 were active after adding rounds of cuts (0.014131 seconds)
OddWheel was tried 10 times and created 0 cuts of which 0 were active after adding rounds of cuts (0.074832 seconds)
MixedIntegerRounding2 was tried 28 times and created 360 cuts of which 0 were active after adding rounds of cuts (0.200097 seconds)
FlowCover was tried 10 times and created 0 cuts of which 0 were active after adding rounds of cuts (0.005166 seconds)
TwoMirCuts was tried 28 times and created 312 cuts of which 0 were active after adding rounds of cuts (0.448852 seconds)
ZeroHalf was tried 28 times and created 181 cuts of which 0 were active after adding rounds of cuts (0.246406 seconds)

Result - Optimal solution found
Objective value:                9
Enumerated nodes:               35
Total iterations:               5232
Time (CPU seconds):             9.80627
Time (Wallclock seconds):       9.8261
Total time (CPU seconds):       9.82927   (Wallclock seconds):       9.84683
